# Solution for model SBL-StripPacking-22
# Objective value = 244
c[0,0] 217
c[0,1] 137
c[1,0] 168.5
c[1,1] 127
c[2,0] 242.5
c[2,1] 135
c[3,0] 286.5
c[3,1] 164.5
c[4,0] 43
c[4,1] 39
c[5,0] 110
c[5,1] 32
c[6,0] 57
c[6,1] 150.5
c[7,0] 245
c[7,1] 178.5
c[8,0] 121.5
c[8,1] 123.5
c[9,0] 223.5
c[9,1] 232.5
c[10,0] 208.5
c[10,1] 178
c[11,0] 112.5
c[11,1] 100.5
c[12,0] 206
c[12,1] 202.5
c[13,0] 310
c[13,1] 59.5
c[14,0] 23.5
c[14,1] 213
c[15,0] 70
c[15,1] 228
c[16,0] 312
c[16,1] 67.5
c[17,0] 298
c[17,1] 222.5
c[18,0] 244
c[18,1] 60
c[19,0] 143
c[19,1] 181.5
c[20,0] 88
c[20,1] 117
c[21,0] 16
c[21,1] 162
h 244
delta[0,1] 1
delta[0,2] 0
delta[0,3] 0
delta[0,4] 0
delta[0,5] 0
delta[0,6] 1
delta[0,7] 1
delta[0,8] 1
delta[0,9] 1
delta[0,10] 1
delta[0,11] 0
delta[0,12] 1
delta[0,13] 0
delta[0,14] 1
delta[0,15] 1
delta[0,16] 0
delta[0,17] 1
delta[0,18] 0
delta[0,19] 1
delta[0,20] 1
delta[0,21] 1
delta[1,0] 1
delta[1,2] 0
delta[1,3] 0
delta[1,4] 1
delta[1,5] 0
delta[1,6] 1
delta[1,7] 1
delta[1,8] 1
delta[1,9] 1
delta[1,10] 1
delta[1,11] 0
delta[1,12] 1
delta[1,13] 0
delta[1,14] 1
delta[1,15] 1
delta[1,16] 0
delta[1,17] 0
delta[1,18] 0
delta[1,19] 1
delta[1,20] 1
delta[1,21] 1
delta[2,0] 0
delta[2,1] 0
delta[2,3] 0
delta[2,4] 1
delta[2,5] 1
delta[2,6] 1
delta[2,7] 1
delta[2,8] 1
delta[2,9] 1
delta[2,10] 1
delta[2,11] 0
delta[2,12] 0
delta[2,13] 1
delta[2,14] 1
delta[2,15] 1
delta[2,16] 0
delta[2,17] 1
delta[2,18] 0
delta[2,19] 0
delta[2,20] 1
delta[2,21] 1
delta[3,0] 0
delta[3,1] 0
delta[3,2] 0
delta[3,4] 1
delta[3,5] 0
delta[3,6] 1
delta[3,7] 1
delta[3,8] 1
delta[3,9] 1
delta[3,10] 0
delta[3,11] 0
delta[3,12] 0
delta[3,13] 0
delta[3,14] 0
delta[3,15] 0
delta[3,16] 0
delta[3,17] 1
delta[3,18] 0
delta[3,19] 0
delta[3,20] 0
delta[3,21] 0
delta[4,0] 1
delta[4,1] 1
delta[4,2] 1
delta[4,3] 1
delta[4,5] 0
delta[4,6] 1
delta[4,7] 1
delta[4,8] 0
delta[4,9] 0
delta[4,10] 1
delta[4,11] 1
delta[4,12] 1
delta[4,13] 1
delta[4,14] 1
delta[4,15] 1
delta[4,16] 1
delta[4,17] 1
delta[4,18] 1
delta[4,19] 1
delta[4,20] 1
delta[4,21] 1
delta[5,0] 1
delta[5,1] 1
delta[5,2] 1
delta[5,3] 1
delta[5,4] 0
delta[5,6] 1
delta[5,7] 1
delta[5,8] 1
delta[5,9] 0
delta[5,10] 1
delta[5,11] 1
delta[5,12] 1
delta[5,13] 1
delta[5,14] 1
delta[5,15] 1
delta[5,16] 1
delta[5,17] 1
delta[5,18] 1
delta[5,19] 1
delta[5,20] 1
delta[5,21] 0
delta[6,0] 1
delta[6,1] 1
delta[6,2] 1
delta[6,3] 1
delta[6,4] 0
delta[6,5] 0
delta[6,7] 0
delta[6,8] 0
delta[6,9] 0
delta[6,10] 1
delta[6,11] 0
delta[6,12] 1
delta[6,13] 0
delta[6,14] 1
delta[6,15] 1
delta[6,16] 1
delta[6,17] 1
delta[6,18] 1
delta[6,19] 1
delta[6,20] 0
delta[6,21] 0
delta[7,0] 0
delta[7,1] 0
delta[7,2] 0
delta[7,3] 1
delta[7,4] 0
delta[7,5] 0
delta[7,6] 0
delta[7,8] 0
delta[7,9] 1
delta[7,10] 0
delta[7,11] 0
delta[7,12] 0
delta[7,13] 1
delta[7,14] 0
delta[7,15] 1
delta[7,16] 0
delta[7,17] 1
delta[7,18] 0
delta[7,19] 0
delta[7,20] 0
delta[7,21] 0
delta[8,0] 1
delta[8,1] 1
delta[8,2] 1
delta[8,3] 1
delta[8,4] 0
delta[8,5] 0
delta[8,6] 0
delta[8,7] 1
delta[8,9] 0
delta[8,10] 1
delta[8,11] 0
delta[8,12] 1
delta[8,13] 0
delta[8,14] 1
delta[8,15] 1
delta[8,16] 0
delta[8,17] 1
delta[8,18] 1
delta[8,19] 1
delta[8,20] 0
delta[8,21] 0
delta[9,0] 0
delta[9,1] 0
delta[9,2] 0
delta[9,3] 0
delta[9,4] 0
delta[9,5] 0
delta[9,6] 0
delta[9,7] 0
delta[9,8] 0
delta[9,10] 0
delta[9,11] 0
delta[9,12] 0
delta[9,13] 0
delta[9,14] 0
delta[9,15] 0
delta[9,16] 0
delta[9,17] 1
delta[9,18] 0
delta[9,19] 0
delta[9,20] 0
delta[9,21] 0
delta[10,0] 0
delta[10,1] 0
delta[10,2] 0
delta[10,3] 0
delta[10,4] 1
delta[10,5] 1
delta[10,6] 1
delta[10,7] 0
delta[10,8] 1
delta[10,9] 1
delta[10,11] 1
delta[10,12] 1
delta[10,13] 0
delta[10,14] 1
delta[10,15] 1
delta[10,16] 0
delta[10,17] 0
delta[10,18] 0
delta[10,19] 1
delta[10,20] 1
delta[10,21] 1
delta[11,0] 1
delta[11,1] 1
delta[11,2] 0
delta[11,3] 0
delta[11,4] 1
delta[11,5] 0
delta[11,6] 1
delta[11,7] 1
delta[11,8] 1
delta[11,9] 1
delta[11,10] 1
delta[11,12] 1
delta[11,13] 0
delta[11,14] 1
delta[11,15] 1
delta[11,16] 0
delta[11,17] 0
delta[11,18] 0
delta[11,19] 1
delta[11,20] 1
delta[11,21] 1
delta[12,0] 0
delta[12,1] 0
delta[12,2] 0
delta[12,3] 0
delta[12,4] 1
delta[12,5] 0
delta[12,6] 1
delta[12,7] 0
delta[12,8] 1
delta[12,9] 1
delta[12,10] 0
delta[12,11] 0
delta[12,13] 0
delta[12,14] 1
delta[12,15] 1
delta[12,16] 0
delta[12,17] 0
delta[12,18] 0
delta[12,19] 1
delta[12,20] 1
delta[12,21] 1
delta[13,0] 1
delta[13,1] 1
delta[13,2] 1
delta[13,3] 1
delta[13,4] 1
delta[13,5] 1
delta[13,6] 1
delta[13,7] 1
delta[13,8] 1
delta[13,9] 1
delta[13,10] 0
delta[13,11] 1
delta[13,12] 1
delta[13,14] 1
delta[13,15] 1
delta[13,16] 1
delta[13,17] 1
delta[13,18] 1
delta[13,19] 1
delta[13,20] 1
delta[13,21] 1
delta[14,0] 0
delta[14,1] 0
delta[14,2] 0
delta[14,3] 0
delta[14,4] 0
delta[14,5] 0
delta[14,6] 0
delta[14,7] 0
delta[14,8] 0
delta[14,9] 0
delta[14,10] 0
delta[14,11] 0
delta[14,12] 1
delta[14,13] 1
delta[14,15] 0
delta[14,16] 0
delta[14,17] 0
delta[14,18] 0
delta[14,19] 0
delta[14,20] 0
delta[14,21] 0
delta[15,0] 0
delta[15,1] 0
delta[15,2] 0
delta[15,3] 0
delta[15,4] 0
delta[15,5] 0
delta[15,6] 0
delta[15,7] 0
delta[15,8] 0
delta[15,9] 0
delta[15,10] 1
delta[15,11] 0
delta[15,12] 1
delta[15,13] 0
delta[15,14] 0
delta[15,16] 0
delta[15,17] 0
delta[15,18] 0
delta[15,19] 0
delta[15,20] 0
delta[15,21] 1
delta[16,0] 1
delta[16,1] 1
delta[16,2] 1
delta[16,3] 1
delta[16,4] 1
delta[16,5] 0
delta[16,6] 1
delta[16,7] 1
delta[16,8] 1
delta[16,9] 1
delta[16,10] 1
delta[16,11] 0
delta[16,12] 1
delta[16,13] 0
delta[16,14] 1
delta[16,15] 1
delta[16,17] 1
delta[16,18] 1
delta[16,19] 1
delta[16,20] 1
delta[16,21] 1
delta[17,0] 0
delta[17,1] 0
delta[17,2] 0
delta[17,3] 0
delta[17,4] 1
delta[17,5] 1
delta[17,6] 1
delta[17,7] 0
delta[17,8] 1
delta[17,9] 1
delta[17,10] 0
delta[17,11] 0
delta[17,12] 0
delta[17,13] 0
delta[17,14] 0
delta[17,15] 0
delta[17,16] 0
delta[17,18] 0
delta[17,19] 1
delta[17,20] 1
delta[17,21] 1
delta[18,0] 1
delta[18,1] 1
delta[18,2] 1
delta[18,3] 1
delta[18,4] 1
delta[18,5] 1
delta[18,6] 1
delta[18,7] 1
delta[18,8] 1
delta[18,9] 1
delta[18,10] 1
delta[18,11] 0
delta[18,12] 1
delta[18,13] 1
delta[18,14] 1
delta[18,15] 1
delta[18,16] 1
delta[18,17] 1
delta[18,19] 1
delta[18,20] 1
delta[18,21] 1
delta[19,0] 1
delta[19,1] 0
delta[19,2] 0
delta[19,3] 0
delta[19,4] 0
delta[19,5] 0
delta[19,6] 1
delta[19,7] 0
delta[19,8] 0
delta[19,9] 0
delta[19,10] 1
delta[19,11] 0
delta[19,12] 1
delta[19,13] 0
delta[19,14] 0
delta[19,15] 0
delta[19,16] 1
delta[19,17] 1
delta[19,18] 0
delta[19,20] 0
delta[19,21] 1
delta[20,0] 1
delta[20,1] 1
delta[20,2] 1
delta[20,3] 0
delta[20,4] 1
delta[20,5] 0
delta[20,6] 1
delta[20,7] 1
delta[20,8] 0
delta[20,9] 0
delta[20,10] 1
delta[20,11] 0
delta[20,12] 1
delta[20,13] 0
delta[20,14] 0
delta[20,15] 1
delta[20,16] 0
delta[20,17] 1
delta[20,18] 1
delta[20,19] 1
delta[20,21] 1
delta[21,0] 1
delta[21,1] 1
delta[21,2] 1
delta[21,3] 0
delta[21,4] 0
delta[21,5] 0
delta[21,6] 0
delta[21,7] 0
delta[21,8] 0
delta[21,9] 0
delta[21,10] 1
delta[21,11] 1
delta[21,12] 1
delta[21,13] 1
delta[21,14] 1
delta[21,15] 1
delta[21,16] 0
delta[21,17] 1
delta[21,18] 1
delta[21,19] 1
delta[21,20] 1
